language ESSENCE' 1.0

letting jobs = 102
letting horizon = 816
letting resourcesRenew = 2
letting resourcesNonrenew = 2
letting resourceLimits = [51, 50, 375, 444]
letting successors = [[2, 3, 4, 5, 6, 7, 8, 9, 10, 11, 12, 13, 14, 15, 17, 18, 19, 20, 23, 25, 27, 29, 30, 31, 33, 36, 39, 40, 49, 61], [97, 96, 68, 67, 56, 55, 53, 51, 50, 47, 46, 45, 34, 28, 16], [101, 100, 68, 63, 59, 56, 53, 52, 50, 48, 44, 41, 38, 28, 24, 22], [100, 66, 57, 56, 55, 53, 46, 45, 37, 32, 28, 24, 21], [100, 98, 97, 96, 89, 67, 63, 56, 53, 52, 51, 50, 47, 28, 16], [101, 100, 68, 67, 53, 51, 48, 47, 45, 37, 35, 26, 22], [101, 98, 92, 68, 64, 58, 53, 37, 26, 22], [99, 97, 96, 95, 94, 87, 86, 85, 84, 67, 66, 65, 63, 62, 58, 55, 54, 51, 47, 46, 45], [101, 98, 97, 95, 92, 91, 89, 87, 86, 85, 84, 82, 81, 80, 67, 64, 63, 62, 59, 53, 52, 50, 41], [100, 98, 97, 95, 94, 93, 92, 90, 89, 87, 86, 85, 82, 68, 67, 63, 62, 58, 52, 47, 43, 42], [100, 97, 96, 90, 89, 88, 85, 84, 76, 64, 63, 59, 57, 53, 52, 28], [98, 96, 94, 93, 92, 91, 90, 89, 87, 86, 85, 84, 83, 80, 76, 66, 65, 64, 63, 60, 54, 52, 47], [94, 92, 91, 90, 89, 87, 86, 85, 82, 79, 68, 66, 62, 58, 53, 52, 50, 43], [100, 97, 96, 94, 90, 89, 87, 86, 85, 82, 68, 64, 63, 62, 43, 42], [95, 94, 87, 81, 80, 78, 77, 67, 66, 63, 56, 53, 45, 42], [101, 95, 94, 93, 92, 90, 87, 86, 82, 75, 72, 66, 64, 62, 60, 59, 58, 43], [100, 97, 94, 93, 91, 89, 87, 85, 82, 76, 72, 64, 63, 60, 59, 52, 43], [101, 96, 95, 94, 91, 89, 88, 86, 85, 84, 80, 77, 76, 72, 71, 69, 66, 63, 59, 45], [100, 95, 94, 93, 90, 87, 79, 67, 64, 62, 60, 58, 46, 43], [100, 98, 94, 92, 91, 90, 87, 86, 85, 82, 76, 73, 72, 69, 63, 52, 43], [96, 90, 89, 88, 87, 84, 82, 79, 77, 72, 62, 35], [96, 95, 94, 90, 87, 85, 79, 75, 73, 72, 69, 65, 62, 60, 43], [95, 91, 90, 87, 83, 80, 77, 76, 75, 64, 63, 59, 58, 54, 47], [97, 94, 93, 91, 89, 86, 85, 82, 79, 76, 73, 72, 58, 43], [99, 95, 91, 85, 76, 59, 58, 52, 51, 46], [99, 97, 95, 91, 86, 79, 75, 73, 72, 70, 69, 62, 43], [95, 94, 91, 84, 82, 80, 65, 64, 63, 62, 60, 52], [99, 95, 93, 92, 91, 86, 83, 82, 81, 80, 79, 78, 75, 74, 72, 71, 65, 58], [93, 92, 88, 87, 86, 84, 83, 82, 81, 80, 79, 77, 76, 72, 71, 70, 66, 64], [99, 92, 90, 86, 84, 81, 80, 79, 76, 74, 72, 71, 70, 69, 59], [96, 92, 88, 87, 85, 81, 80, 75, 74, 73, 72, 71, 62, 58], [99, 97, 88, 86, 83, 82, 80, 77, 62, 58, 50], [85, 83, 82, 81, 80, 72, 71, 63, 59, 52], [86, 85, 84, 83, 82, 81, 76, 64, 63, 52], [93, 92, 86, 85, 81, 76, 75, 74, 71, 59, 58], [101, 96, 89, 87, 83, 81, 78, 75, 73, 71, 70, 69], [93, 89, 87, 79, 76, 73, 72, 52], [97, 89, 87, 85, 77, 72, 70, 64, 62], [98, 82, 81, 78, 76, 75, 74, 64, 58], [91, 89, 84, 80, 74, 69, 60, 59], [96, 90, 83, 73, 72, 60, 58], [91, 84, 79, 75, 74, 73, 72, 69, 65], [88, 84, 83, 81, 80, 78, 77, 74, 71], [99, 98, 85, 77, 75, 72, 70, 69], [98, 92, 90, 83, 82, 75, 73], [89, 82, 77, 73, 72, 71, 69], [79, 74, 73, 72, 71, 69], [90, 89, 86, 77, 71, 70], [82, 79, 73, 69, 65], [76, 75, 72, 71, 70], [88, 80, 79, 77, 69], [77, 75, 74, 70], [93, 73, 71, 69], [82, 81, 72, 71], [78, 73, 72, 70], [86, 85, 76], [87, 73, 72], [70, 69], [78, 73], [78, 71], [79, 69], [76], [79], [69], [70], [74], [69], [75], [102], [102], [102], [102], [102], [102], [102], [102], [102], [102], [102], [102], [102], [102], [102], [102], [102], [102], [102], [102], [102], [102], [102], [102], [102], [102], [102], [102], [102], [102], [102], [102], [102], []]
letting durations = [[0], [2, 3, 4], [9, 10, 10], [8, 9, 10], [2, 3, 8], [2, 5, 7], [3, 5, 10], [1, 3, 8], [4, 8, 9], [4, 5, 10], [1, 2, 3], [5, 8, 9], [3, 5, 9], [3, 7, 10], [1, 3, 5], [1, 2, 5], [2, 5, 7], [7, 8, 10], [1, 4, 4], [5, 6, 7], [1, 3, 9], [2, 5, 7], [1, 2, 3], [4, 7, 9], [2, 5, 8], [1, 2, 2], [3, 4, 8], [2, 7, 10], [3, 3, 8], [4, 6, 9], [7, 8, 8], [1, 1, 10], [1, 1, 9], [3, 7, 10], [4, 7, 8], [1, 7, 8], [6, 8, 9], [8, 8, 9], [7, 8, 9], [8, 9, 10], [7, 9, 10], [4, 7, 9], [8, 9, 10], [2, 9, 10], [3, 7, 9], [1, 1, 5], [2, 6, 9], [3, 10, 10], [1, 2, 6], [2, 4, 9], [1, 2, 9], [3, 5, 6], [3, 4, 7], [6, 8, 9], [2, 6, 10], [2, 8, 8], [7, 7, 10], [4, 6, 8], [3, 8, 10], [2, 4, 9], [5, 8, 8], [1, 6, 9], [4, 4, 9], [4, 6, 7], [6, 9, 10], [1, 2, 7], [3, 5, 10], [6, 7, 8], [4, 7, 9], [3, 5, 7], [7, 8, 9], [4, 5, 6], [4, 7, 9], [5, 5, 9], [3, 4, 4], [3, 7, 10], [6, 6, 10], [2, 3, 7], [4, 6, 7], [2, 5, 10], [1, 6, 9], [1, 2, 6], [1, 2, 10], [2, 4, 6], [2, 8, 8], [5, 7, 8], [4, 4, 5], [2, 5, 7], [6, 7, 9], [1, 5, 10], [8, 9, 10], [5, 9, 10], [3, 5, 6], [1, 1, 8], [2, 3, 6], [4, 5, 8], [2, 3, 9], [4, 8, 10], [6, 9, 10], [5, 6, 7], [1, 4, 8], [0]]
letting resourceUsage = [[[0, 0, 0, 0]], [[4, 5, 0, 8], [3, 4, 0, 7], [2, 4, 3, 0]], [[4, 3, 4, 0], [3, 3, 3, 0], [3, 3, 0, 4]], [[5, 4, 6, 0], [4, 4, 6, 0], [3, 4, 0, 2]], [[4, 1, 0, 5], [2, 1, 6, 0], [2, 1, 5, 0]], [[4, 3, 0, 8], [3, 1, 1, 0], [3, 1, 0, 8]], [[3, 2, 2, 0], [3, 1, 2, 0], [3, 1, 1, 0]], [[2, 1, 4, 0], [2, 1, 3, 0], [2, 1, 0, 10]], [[3, 5, 0, 5], [3, 4, 7, 0], [1, 4, 0, 3]], [[3, 4, 0, 7], [2, 4, 0, 4], [2, 4, 7, 0]], [[1, 3, 0, 7], [1, 3, 0, 6], [1, 2, 0, 5]], [[2, 1, 0, 4], [1, 1, 5, 0], [1, 1, 3, 0]], [[3, 4, 0, 7], [3, 3, 3, 0], [3, 3, 1, 0]], [[5, 3, 9, 0], [5, 2, 0, 8], [5, 2, 0, 7]], [[2, 5, 4, 0], [2, 5, 0, 9], [2, 5, 3, 0]], [[2, 2, 0, 6], [2, 2, 0, 5], [2, 2, 6, 0]], [[4, 3, 0, 10], [3, 2, 2, 0], [3, 1, 0, 9]], [[4, 3, 0, 9], [3, 2, 0, 8], [2, 2, 0, 7]], [[4, 4, 0, 6], [3, 3, 6, 0], [3, 2, 0, 4]], [[4, 3, 3, 0], [4, 3, 2, 0], [3, 3, 0, 4]], [[3, 4, 9, 0], [3, 4, 0, 7], [2, 4, 4, 0]], [[3, 4, 3, 0], [2, 3, 2, 0], [2, 3, 0, 1]], [[2, 4, 0, 4], [2, 4, 0, 3], [2, 4, 1, 0]], [[4, 1, 4, 0], [3, 1, 3, 0], [2, 1, 0, 6]], [[3, 1, 0, 6], [2, 1, 0, 5], [2, 1, 0, 4]], [[5, 3, 0, 6], [5, 2, 0, 3], [5, 1, 3, 0]], [[3, 4, 9, 0], [1, 4, 0, 6], [1, 4, 0, 4]], [[5, 1, 6, 0], [4, 1, 5, 0], [2, 1, 0, 4]], [[3, 5, 0, 8], [1, 5, 9, 0], [1, 5, 8, 0]], [[3, 3, 7, 0], [2, 3, 5, 0], [2, 2, 0, 9]], [[3, 4, 9, 0], [1, 3, 5, 0], [1, 1, 0, 4]], [[2, 2, 10, 0], [2, 1, 0, 6], [1, 1, 0, 3]], [[4, 3, 0, 6], [4, 3, 9, 0], [4, 3, 0, 4]], [[4, 3, 0, 7], [3, 3, 0, 5], [3, 3, 7, 0]], [[5, 2, 0, 6], [4, 2, 5, 0], [3, 2, 0, 4]], [[5, 3, 0, 7], [5, 2, 4, 0], [5, 2, 3, 0]], [[1, 2, 8, 0], [1, 2, 0, 4], [1, 2, 0, 3]], [[3, 3, 0, 7], [3, 2, 4, 0], [3, 2, 0, 5]], [[3, 5, 6, 0], [2, 5, 0, 8], [2, 5, 0, 7]], [[1, 1, 0, 7], [1, 1, 0, 6], [1, 1, 0, 3]], [[2, 3, 8, 0], [2, 3, 7, 0], [2, 1, 6, 0]], [[4, 4, 0, 9], [3, 2, 0, 8], [2, 2, 4, 0]], [[1, 2, 6, 0], [1, 2, 0, 9], [1, 2, 3, 0]], [[2, 3, 7, 0], [2, 2, 0, 4], [2, 1, 4, 0]], [[4, 2, 7, 0], [3, 1, 6, 0], [2, 1, 6, 0]], [[3, 5, 10, 0], [3, 3, 0, 2], [3, 3, 0, 1]], [[4, 4, 0, 9], [4, 3, 0, 9], [4, 3, 4, 0]], [[3, 3, 9, 0], [3, 2, 8, 0], [3, 2, 0, 1]], [[3, 4, 3, 0], [3, 4, 2, 0], [3, 3, 2, 0]], [[4, 2, 5, 0], [3, 2, 0, 5], [2, 2, 3, 0]], [[3, 3, 0, 4], [3, 3, 0, 2], [1, 2, 0, 2]], [[4, 3, 0, 7], [3, 2, 3, 0], [3, 2, 0, 5]], [[5, 5, 8, 0], [4, 4, 0, 5], [3, 3, 8, 0]], [[4, 3, 0, 6], [4, 2, 0, 5], [4, 1, 4, 0]], [[4, 5, 0, 7], [4, 4, 0, 5], [4, 3, 0, 5]], [[2, 3, 7, 0], [2, 2, 0, 8], [2, 2, 3, 0]], [[5, 3, 0, 4], [4, 3, 6, 0], [4, 1, 6, 0]], [[1, 5, 0, 6], [1, 3, 0, 4], [1, 3, 0, 3]], [[3, 2, 0, 7], [1, 2, 0, 5], [1, 1, 0, 5]], [[4, 3, 0, 4], [4, 1, 4, 0], [4, 1, 0, 3]], [[3, 1, 6, 0], [2, 1, 0, 4], [2, 1, 3, 0]], [[4, 3, 0, 10], [4, 1, 0, 8], [4, 1, 0, 7]], [[3, 2, 8, 0], [1, 2, 0, 6], [1, 2, 3, 0]], [[2, 2, 6, 0], [2, 2, 4, 0], [2, 2, 3, 0]], [[4, 2, 0, 4], [4, 2, 8, 0], [2, 2, 0, 3]], [[3, 3, 0, 5], [3, 2, 2, 0], [2, 2, 1, 0]], [[3, 3, 0, 9], [2, 3, 7, 0], [1, 3, 0, 8]], [[4, 5, 0, 8], [4, 2, 8, 0], [4, 2, 7, 0]], [[1, 4, 0, 1], [1, 4, 3, 0], [1, 3, 0, 1]], [[3, 5, 9, 0], [3, 3, 7, 0], [3, 3, 0, 3]], [[3, 4, 6, 0], [3, 4, 5, 0], [1, 4, 6, 0]], [[2, 4, 0, 9], [1, 4, 0, 7], [1, 3, 4, 0]], [[4, 2, 0, 10], [4, 1, 4, 0], [4, 1, 0, 4]], [[3, 5, 2, 0], [3, 3, 0, 8], [2, 2, 2, 0]], [[4, 5, 7, 0], [3, 4, 0, 6], [2, 2, 6, 0]], [[3, 1, 10, 0], [3, 1, 9, 0], [3, 1, 0, 3]], [[3, 3, 5, 0], [3, 2, 0, 3], [3, 2, 0, 2]], [[1, 4, 0, 9], [1, 4, 0, 8], [1, 3, 2, 0]], [[4, 3, 7, 0], [4, 3, 0, 7], [3, 3, 0, 7]], [[3, 2, 0, 10], [3, 2, 0, 7], [2, 2, 0, 5]], [[2, 5, 0, 7], [2, 4, 0, 5], [2, 4, 0, 4]], [[2, 3, 0, 5], [2, 3, 0, 4], [2, 3, 1, 0]], [[2, 3, 0, 8], [1, 3, 0, 6], [1, 3, 4, 0]], [[4, 4, 10, 0], [3, 3, 9, 0], [2, 2, 0, 1]], [[3, 4, 0, 7], [2, 3, 0, 6], [2, 3, 5, 0]], [[3, 2, 6, 0], [2, 1, 6, 0], [1, 1, 5, 0]], [[2, 3, 0, 9], [2, 2, 2, 0], [2, 2, 1, 0]], [[3, 3, 0, 10], [3, 3, 0, 8], [3, 3, 0, 4]], [[3, 4, 0, 8], [3, 4, 0, 7], [3, 3, 5, 0]], [[5, 2, 0, 5], [4, 2, 0, 4], [4, 1, 7, 0]], [[4, 5, 0, 6], [3, 2, 0, 4], [3, 2, 2, 0]], [[5, 3, 0, 7], [3, 2, 7, 0], [1, 2, 7, 0]], [[3, 5, 8, 0], [3, 4, 0, 3], [3, 3, 6, 0]], [[2, 5, 0, 9], [1, 4, 7, 0], [1, 4, 4, 0]], [[5, 4, 8, 0], [3, 4, 0, 5], [1, 3, 6, 0]], [[5, 2, 9, 0], [5, 1, 6, 0], [5, 1, 5, 0]], [[1, 3, 5, 0], [1, 3, 2, 0], [1, 3, 1, 0]], [[4, 4, 0, 6], [3, 4, 3, 0], [3, 4, 1, 0]], [[2, 1, 10, 0], [2, 1, 0, 6], [2, 1, 8, 0]], [[3, 3, 0, 9], [2, 3, 0, 9], [2, 3, 0, 8]], [[4, 5, 0, 9], [4, 2, 0, 7], [2, 1, 0, 6]], [[0, 0, 0, 0]]]
